(set-info :smt-lib-version 2.6)
(set-logic QF_S)
(set-info :source |
Generated by: Murphy Berzish, Mitja Kulczynski, Federico Mora, Florin Manea, Joel Day, Dirk Nowotka, Vijay Ganesh, Zhengyang Lu
Generated on: 2020-10-01
Description: Translated from a collection of real-world regex queries, AutomataArk, collected by Loris D’Antoni and Fang Wang: https://github.com/lorisdanto/automatark
Application: Evaluate solvers on real-world regex queries
Target solver: Z3str3RE, CVC4, OSTRICH, Z3seq, Z3str3, Z3-Trau
Publications: Berzish, M., Kulczynski, M., Mora, F., Manea, F., Day, J. D., Nowotka, D., & Ganesh, V. (2021, July). An SMT solver for regular expressions and linear arithmetic over string length. In CAV 2021.
|)
(set-info :license "https://creativecommons.org/licenses/by/4.0/")
(set-info :category "industrial")
(set-info :status unsat)

(declare-const X String)
(assert (str.in_re X (re.++ (str.to_re "Online%21%21%21") (re.union (str.to_re " ") (str.to_re "\u{9}") (str.to_re "\u{a}") (str.to_re "\u{c}") (str.to_re "\u{d}")) (str.to_re "User-Agent:") (re.+ (re.range "0" "9")) (str.to_re "HXDownloadasdbiz.biz\u{a}"))))
(assert (str.in_re X (re.++ (re.* (re.range "0" "9")) (re.* (str.to_re "'")) (re.* (str.to_re "-")) (re.* (re.range "0" "9")) (re.* (str.to_re "/")) (re.* (re.range "0" "9")) (str.to_re "\u{22}\u{a}"))))
(assert (str.in_re X (re.++ (re.range "1" "2") (re.union (str.to_re "0") (str.to_re "|") (str.to_re "9")) ((_ re.loop 2 2) (re.range "0" "9")) (re.range "0" "1") (re.range "0" "9") (re.range "0" "3") (re.range "0" "9") (str.to_re "-") ((_ re.loop 4 4) (re.range "0" "9")) (str.to_re "\u{a}"))))
(assert (str.in_re X (str.to_re "User-Agent:BasedUser-Agent:\u{a}")))
(assert (str.in_re X (re.++ (re.opt (re.++ (re.union (str.to_re "http") (str.to_re "HTTP") (str.to_re "https") (str.to_re "HTTPS") (str.to_re "ftp") (re.++ (str.to_re "FT") (re.opt (str.to_re "P")))) (str.to_re "://"))) (re.+ (re.++ (re.+ (re.union (str.to_re "www") (str.to_re "WWW"))) (str.to_re "."))) (re.union (re.++ ((_ re.loop 3 3) ((_ re.loop 1 3) (re.range "0" "9"))) ((_ re.loop 1 3) (re.range "0" "9")) (str.to_re ".")) (re.++ (re.* (re.++ (re.+ (re.union (str.to_re "!") (str.to_re "~") (str.to_re "*") (str.to_re "'") (str.to_re "(") (str.to_re ")") (str.to_re "-") (re.range "0" "9") (re.range "A" "Z") (re.range "a" "z") (str.to_re "_"))) (str.to_re "."))) (re.opt (re.++ (re.union (str.to_re "^") (str.to_re "-") (re.range "0" "9") (re.range "A" "Z") (re.range "a" "z") (str.to_re "_")) ((_ re.loop 0 61) (re.union (str.to_re "-") (re.range "0" "9") (re.range "A" "Z") (re.range "a" "z") (str.to_re "_"))))) (re.union (re.range "0" "9") (re.range "A" "Z") (re.range "a" "z") (str.to_re "_")) (str.to_re ".") ((_ re.loop 2 6) (re.range "a" "z")))) (re.opt (re.++ (str.to_re ":") ((_ re.loop 1 4) (re.range "0" "9")))) (re.union (re.* (str.to_re "/")) (re.++ (re.+ (re.++ (re.+ (str.to_re "/")) (re.+ (re.union (str.to_re "!") (str.to_re "~") (str.to_re "*") (str.to_re "'") (str.to_re "(") (str.to_re ")") (str.to_re ".") (str.to_re ";") (str.to_re "?") (str.to_re ":") (str.to_re "@") (str.to_re "&") (str.to_re "=") (str.to_re "+") (str.to_re "$") (str.to_re ",") (str.to_re "%") (str.to_re "#") (str.to_re "-") (re.range "0" "9") (re.range "A" "Z") (re.range "a" "z") (str.to_re "_"))))) (re.* (str.to_re "/")))) (str.to_re "\u{a}"))))
(check-sat)

(exit)
